certificates/rado_a5_c262_N52.cnf
c Rad2 upper bound instance: x1 + 5*x2 - x3 = 262, interval [1,52]
p cnf 52 550
1 3 52 0
-1 -3 -52 0
2 4 52 0
-2 -4 -52 0
3 5 52 0
-3 -5 -52 0
4 6 52 0
-4 -6 -52 0
5 7 52 0
-5 -7 -52 0
1 8 51 0
-1 -8 -51 0
6 8 52 0
-6 -8 -52 0
2 9 51 0
-2 -9 -51 0
7 9 52 0
-7 -9 -52 0
3 10 51 0
-3 -10 -51 0
8 10 52 0
-8 -10 -52 0
4 11 51 0
-4 -11 -51 0
9 11 52 0
-9 -11 -52 0
5 12 51 0
-5 -12 -51 0
10 12 52 0
-10 -12 -52 0
1 13 50 0
-1 -13 -50 0
6 13 51 0
-6 -13 -51 0
11 13 52 0
-11 -13 -52 0
2 14 50 0
-2 -14 -50 0
7 14 51 0
-7 -14 -51 0
12 14 52 0
-12 -14 -52 0
3 15 50 0
-3 -15 -50 0
8 15 51 0
-8 -15 -51 0
13 15 52 0
-13 -15 -52 0
4 16 50 0
-4 -16 -50 0
9 16 51 0
-9 -16 -51 0
14 16 52 0
-14 -16 -52 0
5 17 50 0
-5 -17 -50 0
10 17 51 0
-10 -17 -51 0
15 17 52 0
-15 -17 -52 0
1 18 49 0
-1 -18 -49 0
6 18 50 0
-6 -18 -50 0
11 18 51 0
-11 -18 -51 0
16 18 52 0
-16 -18 -52 0
2 19 49 0
-2 -19 -49 0
7 19 50 0
-7 -19 -50 0
12 19 51 0
-12 -19 -51 0
17 19 52 0
-17 -19 -52 0
3 20 49 0
-3 -20 -49 0
8 20 50 0
-8 -20 -50 0
13 20 51 0
-13 -20 -51 0
18 20 52 0
-18 -20 -52 0
4 21 49 0
-4 -21 -49 0
9 21 50 0
-9 -21 -50 0
14 21 51 0
-14 -21 -51 0
19 21 52 0
-19 -21 -52 0
5 22 49 0
-5 -22 -49 0
10 22 50 0
-10 -22 -50 0
15 22 51 0
-15 -22 -51 0
20 22 52 0
-20 -22 -52 0
1 23 48 0
-1 -23 -48 0
6 23 49 0
-6 -23 -49 0
11 23 50 0
-11 -23 -50 0
16 23 51 0
-16 -23 -51 0
21 23 52 0
-21 -23 -52 0
2 24 48 0
-2 -24 -48 0
7 24 49 0
-7 -24 -49 0
12 24 50 0
-12 -24 -50 0
17 24 51 0
-17 -24 -51 0
22 24 52 0
-22 -24 -52 0
3 25 48 0
-3 -25 -48 0
8 25 49 0
-8 -25 -49 0
13 25 50 0
-13 -25 -50 0
18 25 51 0
-18 -25 -51 0
23 25 52 0
-23 -25 -52 0
4 26 48 0
-4 -26 -48 0
9 26 49 0
-9 -26 -49 0
14 26 50 0
-14 -26 -50 0
19 26 51 0
-19 -26 -51 0
24 26 52 0
-24 -26 -52 0
5 27 48 0
-5 -27 -48 0
10 27 49 0
-10 -27 -49 0
15 27 50 0
-15 -27 -50 0
20 27 51 0
-20 -27 -51 0
25 27 52 0
-25 -27 -52 0
1 28 47 0
-1 -28 -47 0
6 28 48 0
-6 -28 -48 0
11 28 49 0
-11 -28 -49 0
16 28 50 0
-16 -28 -50 0
21 28 51 0
-21 -28 -51 0
26 28 52 0
-26 -28 -52 0
2 29 47 0
-2 -29 -47 0
7 29 48 0
-7 -29 -48 0
12 29 49 0
-12 -29 -49 0
17 29 50 0
-17 -29 -50 0
22 29 51 0
-22 -29 -51 0
27 29 52 0
-27 -29 -52 0
3 30 47 0
-3 -30 -47 0
8 30 48 0
-8 -30 -48 0
13 30 49 0
-13 -30 -49 0
18 30 50 0
-18 -30 -50 0
23 30 51 0
-23 -30 -51 0
28 30 52 0
-28 -30 -52 0
4 31 47 0
-4 -31 -47 0
9 31 48 0
-9 -31 -48 0
14 31 49 0
-14 -31 -49 0
19 31 50 0
-19 -31 -50 0
24 31 51 0
-24 -31 -51 0
29 31 52 0
-29 -31 -52 0
5 32 47 0
-5 -32 -47 0
10 32 48 0
-10 -32 -48 0
15 32 49 0
-15 -32 -49 0
20 32 50 0
-20 -32 -50 0
25 32 51 0
-25 -32 -51 0
30 32 52 0
-30 -32 -52 0
1 33 46 0
-1 -33 -46 0
6 33 47 0
-6 -33 -47 0
11 33 48 0
-11 -33 -48 0
16 33 49 0
-16 -33 -49 0
21 33 50 0
-21 -33 -50 0
26 33 51 0
-26 -33 -51 0
31 33 52 0
-31 -33 -52 0
2 34 46 0
-2 -34 -46 0
7 34 47 0
-7 -34 -47 0
12 34 48 0
-12 -34 -48 0
17 34 49 0
-17 -34 -49 0
22 34 50 0
-22 -34 -50 0
27 34 51 0
-27 -34 -51 0
32 34 52 0
-32 -34 -52 0
3 35 46 0
-3 -35 -46 0
8 35 47 0
-8 -35 -47 0
13 35 48 0
-13 -35 -48 0
18 35 49 0
-18 -35 -49 0
23 35 50 0
-23 -35 -50 0
28 35 51 0
-28 -35 -51 0
33 35 52 0
-33 -35 -52 0
4 36 46 0
-4 -36 -46 0
9 36 47 0
-9 -36 -47 0
14 36 48 0
-14 -36 -48 0
19 36 49 0
-19 -36 -49 0
24 36 50 0
-24 -36 -50 0
29 36 51 0
-29 -36 -51 0
34 36 52 0
-34 -36 -52 0
5 37 46 0
-5 -37 -46 0
10 37 47 0
-10 -37 -47 0
15 37 48 0
-15 -37 -48 0
20 37 49 0
-20 -37 -49 0
25 37 50 0
-25 -37 -50 0
30 37 51 0
-30 -37 -51 0
35 37 52 0
-35 -37 -52 0
1 38 45 0
-1 -38 -45 0
6 38 46 0
-6 -38 -46 0
11 38 47 0
-11 -38 -47 0
16 38 48 0
-16 -38 -48 0
21 38 49 0
-21 -38 -49 0
26 38 50 0
-26 -38 -50 0
31 38 51 0
-31 -38 -51 0
36 38 52 0
-36 -38 -52 0
2 39 45 0
-2 -39 -45 0
7 39 46 0
-7 -39 -46 0
12 39 47 0
-12 -39 -47 0
17 39 48 0
-17 -39 -48 0
22 39 49 0
-22 -39 -49 0
27 39 50 0
-27 -39 -50 0
32 39 51 0
-32 -39 -51 0
37 39 52 0
-37 -39 -52 0
3 40 45 0
-3 -40 -45 0
8 40 46 0
-8 -40 -46 0
13 40 47 0
-13 -40 -47 0
18 40 48 0
-18 -40 -48 0
23 40 49 0
-23 -40 -49 0
28 40 50 0
-28 -40 -50 0
33 40 51 0
-33 -40 -51 0
38 40 52 0
-38 -40 -52 0
4 41 45 0
-4 -41 -45 0
9 41 46 0
-9 -41 -46 0
14 41 47 0
-14 -41 -47 0
19 41 48 0
-19 -41 -48 0
24 41 49 0
-24 -41 -49 0
29 41 50 0
-29 -41 -50 0
34 41 51 0
-34 -41 -51 0
39 41 52 0
-39 -41 -52 0
5 42 45 0
-5 -42 -45 0
10 42 46 0
-10 -42 -46 0
15 42 47 0
-15 -42 -47 0
20 42 48 0
-20 -42 -48 0
25 42 49 0
-25 -42 -49 0
30 42 50 0
-30 -42 -50 0
35 42 51 0
-35 -42 -51 0
40 42 52 0
-40 -42 -52 0
1 43 44 0
-1 -43 -44 0
6 43 45 0
-6 -43 -45 0
11 43 46 0
-11 -43 -46 0
16 43 47 0
-16 -43 -47 0
21 43 48 0
-21 -43 -48 0
26 43 49 0
-26 -43 -49 0
31 43 50 0
-31 -43 -50 0
36 43 51 0
-36 -43 -51 0
41 43 52 0
-41 -43 -52 0
2 44 0
-2 -44 0
7 44 45 0
-7 -44 -45 0
12 44 46 0
-12 -44 -46 0
17 44 47 0
-17 -44 -47 0
22 44 48 0
-22 -44 -48 0
27 44 49 0
-27 -44 -49 0
32 44 50 0
-32 -44 -50 0
37 44 51 0
-37 -44 -51 0
42 44 52 0
-42 -44 -52 0
3 44 45 0
-3 -44 -45 0
8 45 0
-8 -45 0
13 45 46 0
-13 -45 -46 0
18 45 47 0
-18 -45 -47 0
23 45 48 0
-23 -45 -48 0
28 45 49 0
-28 -45 -49 0
33 45 50 0
-33 -45 -50 0
38 45 51 0
-38 -45 -51 0
43 45 52 0
-43 -45 -52 0
4 44 46 0
-4 -44 -46 0
9 45 46 0
-9 -45 -46 0
14 46 0
-14 -46 0
19 46 47 0
-19 -46 -47 0
24 46 48 0
-24 -46 -48 0
29 46 49 0
-29 -46 -49 0
34 46 50 0
-34 -46 -50 0
39 46 51 0
-39 -46 -51 0
44 46 52 0
-44 -46 -52 0
5 44 47 0
-5 -44 -47 0
10 45 47 0
-10 -45 -47 0
15 46 47 0
-15 -46 -47 0
20 47 0
-20 -47 0
25 47 48 0
-25 -47 -48 0
30 47 49 0
-30 -47 -49 0
35 47 50 0
-35 -47 -50 0
40 47 51 0
-40 -47 -51 0
45 47 52 0
-45 -47 -52 0
1 43 48 0
-1 -43 -48 0
6 44 48 0
-6 -44 -48 0
11 45 48 0
-11 -45 -48 0
16 46 48 0
-16 -46 -48 0
21 47 48 0
-21 -47 -48 0
26 48 0
-26 -48 0
31 48 49 0
-31 -48 -49 0
36 48 50 0
-36 -48 -50 0
41 48 51 0
-41 -48 -51 0
46 48 52 0
-46 -48 -52 0
2 43 49 0
-2 -43 -49 0
7 44 49 0
-7 -44 -49 0
12 45 49 0
-12 -45 -49 0
17 46 49 0
-17 -46 -49 0
22 47 49 0
-22 -47 -49 0
27 48 49 0
-27 -48 -49 0
32 49 0
-32 -49 0
37 49 50 0
-37 -49 -50 0
42 49 51 0
-42 -49 -51 0
47 49 52 0
-47 -49 -52 0
3 43 50 0
-3 -43 -50 0
8 44 50 0
-8 -44 -50 0
13 45 50 0
-13 -45 -50 0
18 46 50 0
-18 -46 -50 0
23 47 50 0
-23 -47 -50 0
28 48 50 0
-28 -48 -50 0
33 49 50 0
-33 -49 -50 0
38 50 0
-38 -50 0
43 50 51 0
-43 -50 -51 0
48 50 52 0
-48 -50 -52 0
4 43 51 0
-4 -43 -51 0
9 44 51 0
-9 -44 -51 0
14 45 51 0
-14 -45 -51 0
19 46 51 0
-19 -46 -51 0
24 47 51 0
-24 -47 -51 0
29 48 51 0
-29 -48 -51 0
34 49 51 0
-34 -49 -51 0
39 50 51 0
-39 -50 -51 0
44 51 0
-44 -51 0
49 51 52 0
-49 -51 -52 0
5 43 52 0
-5 -43 -52 0
10 44 52 0
-10 -44 -52 0
15 45 52 0
-15 -45 -52 0
20 46 52 0
-20 -46 -52 0
25 47 52 0
-25 -47 -52 0
30 48 52 0
-30 -48 -52 0
35 49 52 0
-35 -49 -52 0
40 50 52 0
-40 -50 -52 0
45 51 52 0
-45 -51 -52 0
50 52 0
-50 -52 0
