certificates/rado_a5_c262_N52.drat
-52 0
50 0
-38 0
36 0
40 0
-24 0
-48 0
-28 0
22 0
26 0
46 0
30 0
16 0
2 0
6 0
-10 0
-34 0
-14 0
-18 0
-8 0
-4 0
-42 0
-44 0
0
